(set-info :smt-lib-version 2.6)
(set-logic QF_NIA)
(set-info :source |
Generated by: Cristina Borralleras, Daniel Larraz, Albert Oliveras, Enric Rodriguez-Carbonell, Albert Rubio
Generated on: 2017-04-27
Generator: VeryMax
Application: Termination proving
Target solver: barcelogic
|)
(set-info :license "https://creativecommons.org/licenses/by/4.0/")
(set-info :category "industrial")
(set-info :status unknown)
(declare-fun Nl4main_y11 () Int)
(declare-fun Nl4main_y21 () Int)
(declare-fun Nl4main_y12 () Int)
(declare-fun Nl4main_y22 () Int)
(declare-fun Nl4main_y13 () Int)
(declare-fun Nl4main_y23 () Int)
(declare-fun lam0n0 () Int)
(declare-fun lam0n1 () Int)
(declare-fun lam0n2 () Int)
(declare-fun lam0n3 () Int)
(declare-fun lam0n4 () Int)
(declare-fun Nl4CT1 () Int)
(declare-fun Nl4CT2 () Int)
(declare-fun Nl4CT3 () Int)
(declare-fun lam1n0 () Int)
(declare-fun lam1n1 () Int)
(declare-fun lam1n2 () Int)
(declare-fun lam1n3 () Int)
(declare-fun lam1n4 () Int)
(declare-fun lam2n0 () Int)
(declare-fun lam2n1 () Int)
(declare-fun lam2n2 () Int)
(declare-fun lam2n3 () Int)
(declare-fun lam2n4 () Int)
(declare-fun lam3n0 () Int)
(declare-fun lam3n1 () Int)
(declare-fun lam3n2 () Int)
(declare-fun lam3n3 () Int)
(declare-fun lam3n4 () Int)
(declare-fun lam4n0 () Int)
(declare-fun lam4n1 () Int)
(declare-fun lam4n2 () Int)
(declare-fun lam4n3 () Int)
(declare-fun lam4n4 () Int)
(declare-fun lam4n5 () Int)
(declare-fun lam4n6 () Int)
(declare-fun lam5n0 () Int)
(declare-fun lam5n1 () Int)
(declare-fun lam5n2 () Int)
(declare-fun lam5n3 () Int)
(declare-fun lam5n4 () Int)
(declare-fun lam5n5 () Int)
(declare-fun lam5n6 () Int)
(declare-fun lam6n0 () Int)
(declare-fun lam6n1 () Int)
(declare-fun lam6n2 () Int)
(declare-fun lam6n3 () Int)
(declare-fun lam6n4 () Int)
(declare-fun lam6n5 () Int)
(declare-fun lam6n6 () Int)
(declare-fun lam7n0 () Int)
(declare-fun lam7n1 () Int)
(declare-fun lam7n2 () Int)
(declare-fun lam7n3 () Int)
(declare-fun lam7n4 () Int)
(declare-fun lam7n5 () Int)
(declare-fun lam8n0 () Int)
(declare-fun lam8n1 () Int)
(declare-fun lam8n2 () Int)
(declare-fun lam8n3 () Int)
(declare-fun lam8n4 () Int)
(declare-fun lam8n5 () Int)
(declare-fun lam9n0 () Int)
(declare-fun lam9n1 () Int)
(declare-fun lam9n2 () Int)
(declare-fun lam9n3 () Int)
(declare-fun lam9n4 () Int)
(declare-fun lam9n5 () Int)
(declare-fun main_y2 () Int)
(declare-fun undef3 () Int)
(declare-fun undef4 () Int)
(declare-fun main_y1 () Int)
(declare-fun lam13n0 () Int)
(declare-fun lam13n1 () Int)
(declare-fun lam13n2 () Int)
(declare-fun lam13n3 () Int)
(declare-fun lam13n4 () Int)
(declare-fun RFN1_CT () Int)
(declare-fun RFN1_main_y2 () Int)
(declare-fun RFN1_main_y1 () Int)
(declare-fun lam11n0 () Int)
(declare-fun lam11n1 () Int)
(declare-fun lam11n2 () Int)
(declare-fun lam11n3 () Int)
(declare-fun lam11n4 () Int)
(declare-fun lam12n0 () Int)
(declare-fun lam12n1 () Int)
(declare-fun lam12n2 () Int)
(declare-fun lam12n3 () Int)
(declare-fun lam12n4 () Int)
(declare-fun lam10n0 () Int)
(declare-fun lam10n1 () Int)
(declare-fun lam10n2 () Int)
(declare-fun lam10n3 () Int)
(declare-fun lam10n4 () Int)
(assert ( and ( <= ( - 1 ) Nl4main_y11 ) ( <= Nl4main_y11 1 ) ( <= ( - 1 ) Nl4main_y21 ) ( <= Nl4main_y21 1 ) ( <= ( - 1 ) Nl4main_y12 ) ( <= Nl4main_y12 1 ) ( <= ( - 1 ) Nl4main_y22 ) ( <= Nl4main_y22 1 ) ( <= ( - 1 ) Nl4main_y13 ) ( <= Nl4main_y13 1 ) ( <= ( - 1 ) Nl4main_y23 ) ( <= Nl4main_y23 1 ) ))
(assert ( or ( and ( >= lam0n0 0 ) ( >= lam0n1 0 ) ( >= lam0n2 0 ) ( >= lam0n3 0 ) ( >= lam0n4 0 ) ( > ( + ( * 1 lam0n1 ) ( * Nl4CT1 lam0n2 ) ( * Nl4CT2 lam0n3 ) ( * Nl4CT3 lam0n4 ) ( - 1 ) ) 0 ) ( = ( + ( * 1 lam0n0 ) ( * 1 lam0n1 ) ( * Nl4main_y11 lam0n2 ) ( * Nl4main_y12 lam0n3 ) ( * Nl4main_y13 lam0n4 ) ) 0 ) ( = ( + ( * ( - 1 ) lam0n1 ) ( * Nl4main_y21 lam0n2 ) ( * Nl4main_y22 lam0n3 ) ( * Nl4main_y23 lam0n4 ) ) 0 ) ) ( and ( >= lam1n0 0 ) ( >= lam1n1 0 ) ( >= lam1n2 0 ) ( >= lam1n3 0 ) ( >= lam1n4 0 ) ( > ( + ( * 1 lam1n1 ) ( * Nl4CT1 lam1n2 ) ( * Nl4CT2 lam1n3 ) ( * Nl4CT3 lam1n4 ) ( - 1 ( + Nl4CT1 ( * Nl4main_y21 0 ) ) ) ) 0 ) ( = ( + ( * 1 lam1n0 ) ( * 1 lam1n1 ) ( * Nl4main_y11 lam1n2 ) ( * Nl4main_y12 lam1n3 ) ( * Nl4main_y13 lam1n4 ) ( - ( + ( + 0 Nl4main_y11 ) ( * Nl4main_y21 ( - 1 ) ) ) ) ) 0 ) ( = ( + ( * ( - 1 ) lam1n1 ) ( * Nl4main_y21 lam1n2 ) ( * Nl4main_y22 lam1n3 ) ( * Nl4main_y23 lam1n4 ) ( - ( + 0 ( * Nl4main_y21 1 ) ) ) ) 0 ) ) ))
(assert ( or ( and ( >= lam0n0 0 ) ( >= lam0n1 0 ) ( >= lam0n2 0 ) ( >= lam0n3 0 ) ( >= lam0n4 0 ) ( > ( + ( * 1 lam0n1 ) ( * Nl4CT1 lam0n2 ) ( * Nl4CT2 lam0n3 ) ( * Nl4CT3 lam0n4 ) ( - 1 ) ) 0 ) ( = ( + ( * 1 lam0n0 ) ( * 1 lam0n1 ) ( * Nl4main_y11 lam0n2 ) ( * Nl4main_y12 lam0n3 ) ( * Nl4main_y13 lam0n4 ) ) 0 ) ( = ( + ( * ( - 1 ) lam0n1 ) ( * Nl4main_y21 lam0n2 ) ( * Nl4main_y22 lam0n3 ) ( * Nl4main_y23 lam0n4 ) ) 0 ) ) ( and ( >= lam2n0 0 ) ( >= lam2n1 0 ) ( >= lam2n2 0 ) ( >= lam2n3 0 ) ( >= lam2n4 0 ) ( > ( + ( * 1 lam2n1 ) ( * Nl4CT1 lam2n2 ) ( * Nl4CT2 lam2n3 ) ( * Nl4CT3 lam2n4 ) ( - 1 ( + Nl4CT2 ( * Nl4main_y22 0 ) ) ) ) 0 ) ( = ( + ( * 1 lam2n0 ) ( * 1 lam2n1 ) ( * Nl4main_y11 lam2n2 ) ( * Nl4main_y12 lam2n3 ) ( * Nl4main_y13 lam2n4 ) ( - ( + ( + 0 Nl4main_y12 ) ( * Nl4main_y22 ( - 1 ) ) ) ) ) 0 ) ( = ( + ( * ( - 1 ) lam2n1 ) ( * Nl4main_y21 lam2n2 ) ( * Nl4main_y22 lam2n3 ) ( * Nl4main_y23 lam2n4 ) ( - ( + 0 ( * Nl4main_y22 1 ) ) ) ) 0 ) ) ))
(assert ( or ( and ( >= lam0n0 0 ) ( >= lam0n1 0 ) ( >= lam0n2 0 ) ( >= lam0n3 0 ) ( >= lam0n4 0 ) ( > ( + ( * 1 lam0n1 ) ( * Nl4CT1 lam0n2 ) ( * Nl4CT2 lam0n3 ) ( * Nl4CT3 lam0n4 ) ( - 1 ) ) 0 ) ( = ( + ( * 1 lam0n0 ) ( * 1 lam0n1 ) ( * Nl4main_y11 lam0n2 ) ( * Nl4main_y12 lam0n3 ) ( * Nl4main_y13 lam0n4 ) ) 0 ) ( = ( + ( * ( - 1 ) lam0n1 ) ( * Nl4main_y21 lam0n2 ) ( * Nl4main_y22 lam0n3 ) ( * Nl4main_y23 lam0n4 ) ) 0 ) ) ( and ( >= lam3n0 0 ) ( >= lam3n1 0 ) ( >= lam3n2 0 ) ( >= lam3n3 0 ) ( >= lam3n4 0 ) ( > ( + ( * 1 lam3n1 ) ( * Nl4CT1 lam3n2 ) ( * Nl4CT2 lam3n3 ) ( * Nl4CT3 lam3n4 ) ( - 1 ( + Nl4CT3 ( * Nl4main_y23 0 ) ) ) ) 0 ) ( = ( + ( * 1 lam3n0 ) ( * 1 lam3n1 ) ( * Nl4main_y11 lam3n2 ) ( * Nl4main_y12 lam3n3 ) ( * Nl4main_y13 lam3n4 ) ( - ( + ( + 0 Nl4main_y13 ) ( * Nl4main_y23 ( - 1 ) ) ) ) ) 0 ) ( = ( + ( * ( - 1 ) lam3n1 ) ( * Nl4main_y21 lam3n2 ) ( * Nl4main_y22 lam3n3 ) ( * Nl4main_y23 lam3n4 ) ( - ( + 0 ( * Nl4main_y23 1 ) ) ) ) 0 ) ) ))
(assert ( or ( and ( not ( <= ( + 1 ( * ( - 1 ) main_y2 ) ) 0 ) ) ( <= ( * ( - 1 ) undef3 ) 0 ) ( <= ( * ( - 1 ) undef4 ) 0 ) ( <= ( + 1 ( * ( - 1 ) main_y1 ) ) 0 ) ( not ( <= ( + main_y1 ( * ( - 1 ) main_y2 ) ) 0 ) ) ( = ( + main_y1 ( * ( - 1 ) undef3 ) ) 0 ) ( = ( + main_y2 ( * ( - 1 ) undef4 ) ) 0 ) ( <= ( + Nl4CT1 ( * ( + 0 Nl4main_y11 ) main_y1 ) ( * ( + 0 Nl4main_y21 ) main_y2 ) ) 0 ) ( <= ( + Nl4CT2 ( * ( + 0 Nl4main_y12 ) main_y1 ) ( * ( + 0 Nl4main_y22 ) main_y2 ) ) 0 ) ( <= ( + Nl4CT3 ( * ( + 0 Nl4main_y13 ) main_y1 ) ( * ( + 0 Nl4main_y23 ) main_y2 ) ) 0 ) ( <= ( + main_y1 ( * ( - 1 ) main_y2 ) ) 0 ) ) ( and ( not ( <= ( + 1 ( * ( - 1 ) main_y1 ) ) 0 ) ) ( <= ( * ( - 1 ) undef3 ) 0 ) ( <= ( * ( - 1 ) undef4 ) 0 ) ( not ( <= ( + ( * ( - 1 ) main_y1 ) main_y2 ) 0 ) ) ( = ( + main_y1 ( * ( - 1 ) undef3 ) ) 0 ) ( = ( + main_y2 ( * ( - 1 ) undef4 ) ) 0 ) ( <= ( + Nl4CT1 ( * ( + 0 Nl4main_y11 ) main_y1 ) ( * ( + 0 Nl4main_y21 ) main_y2 ) ) 0 ) ( <= ( + Nl4CT2 ( * ( + 0 Nl4main_y12 ) main_y1 ) ( * ( + 0 Nl4main_y22 ) main_y2 ) ) 0 ) ( <= ( + Nl4CT3 ( * ( + 0 Nl4main_y13 ) main_y1 ) ( * ( + 0 Nl4main_y23 ) main_y2 ) ) 0 ) ( <= ( + main_y1 ( * ( - 1 ) main_y2 ) ) 0 ) ) ))
(assert ( or ( and ( and ( >= lam13n0 0 ) ( >= lam13n1 0 ) ( >= lam13n2 0 ) ( >= lam13n3 0 ) ( >= lam13n4 0 ) ( > ( + ( * 1 lam13n1 ) ( * Nl4CT1 lam13n2 ) ( * Nl4CT2 lam13n3 ) ( * Nl4CT3 lam13n4 ) ( - 1 ( - ( + RFN1_CT ( * RFN1_main_y2 0 ) ) RFN1_CT ) ) ) 0 ) ( = ( + ( * 1 lam13n0 ) ( * 1 lam13n1 ) ( * Nl4main_y11 lam13n2 ) ( * Nl4main_y12 lam13n3 ) ( * Nl4main_y13 lam13n4 ) ( - ( - ( + ( + 0 RFN1_main_y1 ) ( * RFN1_main_y2 ( - 1 ) ) ) RFN1_main_y1 ) ) ) 0 ) ( = ( + ( * ( - 1 ) lam13n1 ) ( * Nl4main_y21 lam13n2 ) ( * Nl4main_y22 lam13n3 ) ( * Nl4main_y23 lam13n4 ) ( - ( - ( + 0 ( * RFN1_main_y2 1 ) ) RFN1_main_y2 ) ) ) 0 ) ) ( and ( and ( >= lam11n0 0 ) ( >= lam11n1 0 ) ( >= lam11n2 0 ) ( >= lam11n3 0 ) ( >= lam11n4 0 ) ( > ( + ( * 1 lam11n1 ) ( * Nl4CT1 lam11n2 ) ( * Nl4CT2 lam11n3 ) ( * Nl4CT3 lam11n4 ) ( - 1 ( - RFN1_CT ) ) ) 0 ) ( = ( + ( * 1 lam11n0 ) ( * 1 lam11n1 ) ( * Nl4main_y11 lam11n2 ) ( * Nl4main_y12 lam11n3 ) ( * Nl4main_y13 lam11n4 ) ( - ( - RFN1_main_y1 ) ) ) 0 ) ( = ( + ( * ( - 1 ) lam11n1 ) ( * Nl4main_y21 lam11n2 ) ( * Nl4main_y22 lam11n3 ) ( * Nl4main_y23 lam11n4 ) ( - ( - RFN1_main_y2 ) ) ) 0 ) ) ( and ( >= lam12n0 0 ) ( >= lam12n1 0 ) ( >= lam12n2 0 ) ( >= lam12n3 0 ) ( >= lam12n4 0 ) ( > ( + ( * 1 lam12n1 ) ( * Nl4CT1 lam12n2 ) ( * Nl4CT2 lam12n3 ) ( * Nl4CT3 lam12n4 ) ( - 1 ( + ( - ( + RFN1_CT ( * RFN1_main_y2 0 ) ) RFN1_CT ) 1 ) ) ) 0 ) ( = ( + ( * 1 lam12n0 ) ( * 1 lam12n1 ) ( * Nl4main_y11 lam12n2 ) ( * Nl4main_y12 lam12n3 ) ( * Nl4main_y13 lam12n4 ) ( - ( - ( + ( + 0 RFN1_main_y1 ) ( * RFN1_main_y2 ( - 1 ) ) ) RFN1_main_y1 ) ) ) 0 ) ( = ( + ( * ( - 1 ) lam12n1 ) ( * Nl4main_y21 lam12n2 ) ( * Nl4main_y22 lam12n3 ) ( * Nl4main_y23 lam12n4 ) ( - ( - ( + 0 ( * RFN1_main_y2 1 ) ) RFN1_main_y2 ) ) ) 0 ) ) ) ) ( and ( >= lam10n0 0 ) ( >= lam10n1 0 ) ( >= lam10n2 0 ) ( >= lam10n3 0 ) ( >= lam10n4 0 ) ( > ( + ( * 1 lam10n1 ) ( * Nl4CT1 lam10n2 ) ( * Nl4CT2 lam10n3 ) ( * Nl4CT3 lam10n4 ) ( - 1 ) ) 0 ) ( = ( + ( * 1 lam10n0 ) ( * 1 lam10n1 ) ( * Nl4main_y11 lam10n2 ) ( * Nl4main_y12 lam10n3 ) ( * Nl4main_y13 lam10n4 ) ) 0 ) ( = ( + ( * ( - 1 ) lam10n1 ) ( * Nl4main_y21 lam10n2 ) ( * Nl4main_y22 lam10n3 ) ( * Nl4main_y23 lam10n4 ) ) 0 ) ) ))
(check-sat)
(exit)
